H1 Pd48 Pt16
1.0
-6.600000 9.000000 0.000000
-6.600000 0.000000 6.600000
29.700000 0.000000 0.000000
Pd Pt Pd Pt Pd Pt Pd Pt H
12 4 12 4 12 4 12 4 1
direct
0.000000 0.000000 0.055556 Pd
0.000000 0.500000 0.055556 Pd
0.500000 0.000000 0.055556 Pd
0.500000 0.500000 0.055556 Pd
0.250000 0.000000 0.055556 Pd
0.250000 0.500000 0.055556 Pd
0.750000 0.000000 0.055556 Pd
0.750000 0.500000 0.055556 Pd
0.250000 0.250000 0.055556 Pd
0.250000 0.750000 0.055556 Pd
0.750000 0.250000 0.055556 Pd
0.750000 0.750000 0.055556 Pd
0.000000 0.250000 0.055556 Pt
0.000000 0.750000 0.055556 Pt
0.500000 0.250000 0.055556 Pt
0.500000 0.750000 0.055556 Pt
0.000000 0.000000 0.166667 Pd
0.000000 0.500000 0.166667 Pd
0.500000 0.000000 0.166667 Pd
0.500000 0.500000 0.166667 Pd
0.250000 0.000000 0.166667 Pd
0.250000 0.500000 0.166667 Pd
0.750000 0.000000 0.166667 Pd
0.750000 0.500000 0.166667 Pd
0.250000 0.250000 0.166667 Pd
0.250000 0.750000 0.166667 Pd
0.750000 0.250000 0.166667 Pd
0.750000 0.750000 0.166667 Pd
0.000000 0.250000 0.166667 Pt
0.000000 0.750000 0.166667 Pt
0.500000 0.250000 0.166667 Pt
0.500000 0.750000 0.166667 Pt
0.000000 0.000000 0.277778 Pd
0.000000 0.500000 0.277778 Pd
0.500000 0.000000 0.277778 Pd
0.500000 0.500000 0.277778 Pd
0.250000 0.000000 0.277778 Pd
0.250000 0.500000 0.277778 Pd
0.750000 0.000000 0.277778 Pd
0.750000 0.500000 0.277778 Pd
0.250000 0.250000 0.277778 Pd
0.250000 0.750000 0.277778 Pd
0.750000 0.250000 0.277778 Pd
0.750000 0.750000 0.277778 Pd
0.000000 0.250000 0.277778 Pt
0.000000 0.750000 0.277778 Pt
0.500000 0.250000 0.277778 Pt
0.500000 0.750000 0.277778 Pt
0.000000 0.000000 0.388889 Pd
0.000000 0.500000 0.388889 Pd
0.500000 0.000000 0.388889 Pd
0.500000 0.500000 0.388889 Pd
0.250000 0.000000 0.388889 Pd
0.250000 0.500000 0.388889 Pd
0.750000 0.000000 0.388889 Pd
0.750000 0.500000 0.388889 Pd
0.250000 0.250000 0.388889 Pd
0.250000 0.750000 0.388889 Pd
0.750000 0.250000 0.388889 Pd
0.750000 0.750000 0.388889 Pd
0.000000 0.250000 0.388889 Pt
0.000000 0.750000 0.388889 Pt
0.500000 0.250000 0.388889 Pt
0.500000 0.750000 0.388889 Pt
0.435630 0.273555 0.496164 H
