H1 Pd9 Pt3
1.0
0.000000 4.500000 0.000000
0.000000 0.000000 3.300000
23.100000 0.000000 0.000000
Pd Pt Pd Pt Pd Pt H
3 1 3 1 3 1 1
direct
0.000000 0.000000 0.107143 Pd
0.500000 0.000000 0.035714 Pd
0.500000 0.500000 0.107143 Pd
0.000000 0.500000 0.035714 Pt
0.000000 0.000000 0.250000 Pd
0.500000 0.000000 0.178571 Pd
0.500000 0.500000 0.250000 Pd
0.000000 0.500000 0.178571 Pt
0.000000 0.000000 0.392857 Pd
0.500000 0.000000 0.321429 Pd
0.500000 0.500000 0.392857 Pd
0.000000 0.500000 0.321429 Pt
0.500000 0.500000 0.479437 H
